\ LP format - for model browsing. Use MPS format to capture full model detail.
Minimize
  0 B18(0) + 0 B19(0) + 0 B20(0) + 0 B23(0) + 0 B25(0) + 0 B26(0) + 0 B27(0)
   + 0 B28(0) + 0 B29(0) + 0 B30(0) + 0 B32(0) + 0 B36(0) + 0 B37(0)
   + 0 B38(0) + 0 B39(0) + 0 B40(0) + 0 B42(0) + 0 B45(0) + 0 B46(0)
   + 0 B47(0) + 0 B48(0) + 0 B49(0) + 0 B50(0) + 0 B53(0) + 0 B54(0)
   + 0 B55(0) + 0 B56(0) + 0 B57(0) + 0 B58(0) + 0 B59(0) + 0 B62(0)
   + 0 B63(0) + 0 B64(0) + 0 B65(0) + 0 B66(0) + 0 B67(0) + 0 B68(0)
   + 0 B69(0) + 0 B72(0) + 0 B73(0) + 0 B74(0) + 0 B75(0) + 0 B76(0)
   + 0 B77(0) + 0 B78(0) + 0 B79(0) + 0 B80(0) + 0 B81(0) + 0 B82(0)
   + 0 B83(0) + 0 B84(0) + 0 B85(0) + 0 B86(0) + 0 B87(0) + 0 B88(0)
   + 0 B89(0) + 0 B90(0) + 0 B91(0) + 0 B92(0) + 0 B93(0) + 0 B94(0)
   + 0 B95(0) + 0 B96(0) + 0 B97(0) + 0 B98(0) + I117(1)
Subject To
 c0: B0(10) + B1(10) = 1
 c1: B2(10) + B3(11) = 1
 c2: B4(9) + B5(8) = 1
 c3: B6(10) + B7(8) = 1
 c4: B8(9) + B9(12) = 1
 c5: B10(8) + B11(7) = 1
 c6: B12(9) + B13(11) = 1
 c7: B14(10) + B15(12) = 1
 c8: B16(9) + B17(8) = 1
 c9: - 1e+09 B0(10) + I99(11) <= 0
 c10: - 1e+09 B1(10) + I100(11) <= 0
 c11: - 1e+09 B2(10) + I101(13) <= 0
 c12: - 1e+09 B3(11) + I102(13) <= 0
 c13: - 1e+09 B4(9) + I103(12) <= 0
 c14: - 1e+09 B5(8) + I104(12) <= 0
 c15: - 1e+09 B6(10) + I105(11) <= 0
 c16: - 1e+09 B7(8) + I106(9) <= 0
 c17: - 1e+09 B8(9) + I107(11) <= 0
 c18: - 1e+09 B9(12) + I108(15) <= 0
 c19: - 1e+09 B10(8) + I109(12) <= 0
 c20: - 1e+09 B11(7) + I110(10) <= 0
 c21: - 1e+09 B12(9) + I111(10) <= 0
 c22: - 1e+09 B13(11) + I112(12) <= 0
 c23: - 1e+09 B14(10) + I113(12) <= 0
 c24: - 1e+09 B15(12) + I114(14) <= 0
 c25: - 1e+09 B16(9) + I115(12) <= 0
 c26: - 1e+09 B17(8) + I116(12) <= 0
 c27: - 117 B0(10) - 125 B1(10) - I99(11) - I100(11) + I101(13) + I102(13)
   >= 0
 c28: - 117 B0(10) - 1.000000125e+09 B1(10) - 1e+09 B3(11) - I99(11)
   - I100(11) + I101(13) + I102(13) >= -1.999999991e+09
 c29: - 140 B2(10) - 130 B3(11) - I101(13) - I102(13) + I103(12) + I104(12)
   >= 0
 c30: - 1.00000014e+09 B2(10) - 130 B3(11) - 1e+09 B4(9) - I101(13)
   - I102(13) + I103(12) + I104(12) >= -1.99999999e+09
 c31: - 214 B6(10) - 150 B7(8) - I105(11) - I106(9) + I107(11) + I108(15)
   >= 0
 c32: - 214 B6(10) - 1.00000015e+09 B7(8) - 1e+09 B8(9) - I105(11)
   - I106(9) + I107(11) + I108(15) >= -1.99999999e+09
 c33: - 55 B8(9) - 66 B9(12) - I107(11) - I108(15) + I109(12) + I110(10)
   >= 0
 c34: - 1.000000055e+09 B8(9) - 66 B9(12) - 1e+09 B11(7) - I107(11)
   - I108(15) + I109(12) + I110(10) >= -1.999999986e+09
 c35: - 87 B12(9) - 62 B13(11) - I111(10) - I112(12) + I113(12) + I114(14)
   >= 0
 c36: - 70 B14(10) - 80 B15(12) - I113(12) - I114(14) + I115(12) + I116(12)
   >= 0
 c37: - 1.00000007e+09 B14(10) - 80 B15(12) - 1e+09 B16(9) - I113(12)
   - I114(14) + I115(12) + I116(12) >= -1.99999999e+09
 c38: - 1e+09 B0(10) - 1e+09 B6(10) - 1e+09 B21(2) + I99(11) - I105(11)
   >= -2.999999777e+09
 c39: - 1e+09 B0(10) - 1e+09 B6(10) + 1e+09 B21(2) - I99(11) + I105(11)
   >= -1.99999987e+09
 c40: - 1e+09 B1(10) - 1e+09 B9(12) - 1e+09 B22(2) + I100(11) - I108(15)
   >= -2.999999923e+09
 c41: - 1e+09 B1(10) - 1e+09 B9(12) + 1e+09 B22(2) - I100(11) + I108(15)
   >= -1.999999866e+09
 c42: - 1e+09 B0(10) - 1e+09 B12(9) - 1e+09 B24(4) + I99(11) - I111(10)
   >= -2.999999902e+09
 c43: - 1e+09 B0(10) - 1e+09 B12(9) + 1e+09 B24(4) - I99(11) + I111(10)
   >= -1.999999871e+09
 c44: - 1e+09 B1(10) - 1e+09 B13(11) - 1e+09 B24(4) + I100(11) - I112(12)
   >= -2.999999923e+09
 c45: - 1e+09 B1(10) - 1e+09 B13(11) + 1e+09 B24(4) - I100(11) + I112(12)
   >= -1.999999865e+09
 c46: - 1e+09 B3(11) - 1e+09 B9(12) - 1e+09 B31(2) + I102(13) - I108(15)
   >= -2.999999921e+09
 c47: - 1e+09 B3(11) - 1e+09 B9(12) + 1e+09 B31(2) - I102(13) + I108(15)
   >= -1.999999857e+09
 c48: - 1e+09 B3(11) - 1e+09 B13(11) - 1e+09 B33(2) + I102(13) - I112(12)
   >= -2.999999928e+09
 c49: - 1e+09 B3(11) - 1e+09 B13(11) + 1e+09 B33(2) - I102(13) + I112(12)
   >= -1.99999986e+09
 c50: - 1e+09 B2(10) - 1e+09 B14(10) - 1e+09 B34(2) + I101(13) - I113(12)
   >= -2.99999992e+09
 c51: - 1e+09 B2(10) - 1e+09 B14(10) + 1e+09 B34(2) - I101(13) + I113(12)
   >= -1.99999985e+09
 c52: - 1e+09 B2(10) - 1e+09 B16(9) - 1e+09 B35(2) + I101(13) - I115(12)
   >= -2.999999799e+09
 c53: - 1e+09 B2(10) - 1e+09 B16(9) + 1e+09 B35(2) - I101(13) + I115(12)
   >= -1.999999851e+09
 c54: - 1e+09 B5(8) - 1e+09 B10(8) - 1e+09 B41(2) + I104(12) - I109(12)
   >= -2.99999991e+09
 c55: - 1e+09 B5(8) - 1e+09 B10(8) + 1e+09 B41(2) - I104(12) + I109(12)
   >= -1.99999983e+09
 c56: - 1e+09 B4(9) - 1e+09 B14(10) - 1e+09 B43(2) + I103(12) - I113(12)
   >= -2.99999992e+09
 c57: - 1e+09 B4(9) - 1e+09 B14(10) + 1e+09 B43(2) - I103(12) + I113(12)
   >= -1.999999837e+09
 c58: - 1e+09 B4(9) - 1e+09 B16(9) - 1e+09 B44(4) + I103(12) - I115(12)
   >= -2.9999998e+09
 c59: - 1e+09 B4(9) - 1e+09 B16(9) + 1e+09 B44(4) - I103(12) + I115(12)
   >= -1.999999838e+09
 c60: - 1e+09 B5(8) - 1e+09 B17(8) - 1e+09 B44(4) + I104(12) - I116(12)
   >= -2.999999891e+09
 c61: - 1e+09 B5(8) - 1e+09 B17(8) + 1e+09 B44(4) - I104(12) + I116(12)
   >= -1.999999828e+09
 c62: - 1e+09 B6(10) - 1e+09 B12(9) - 1e+09 B51(2) + I105(11) - I111(10)
   >= -2.999999901e+09
 c63: - 1e+09 B6(10) - 1e+09 B12(9) + 1e+09 B51(2) - I105(11) + I111(10)
   >= -1.999999772e+09
 c64: - 1e+09 B7(8) - 1e+09 B15(12) - 1e+09 B52(2) + I106(9) - I114(14)
   >= -2.99999991e+09
 c65: - 1e+09 B7(8) - 1e+09 B15(12) + 1e+09 B52(2) - I106(9) + I114(14)
   >= -1.99999984e+09
 c66: - 1e+09 B9(12) - 1e+09 B13(11) - 1e+09 B60(2) + I108(15) - I112(12)
   >= -2.999999925e+09
 c67: - 1e+09 B9(12) - 1e+09 B13(11) + 1e+09 B60(2) - I108(15) + I112(12)
   >= -1.999999922e+09
 c68: - 1e+09 B8(9) - 1e+09 B15(12) - 1e+09 B61(2) + I107(11) - I114(14)
   >= -2.999999908e+09
 c69: - 1e+09 B8(9) - 1e+09 B15(12) + 1e+09 B61(2) - I107(11) + I114(14)
   >= -1.999999936e+09
 c70: - 1e+09 B11(7) - 1e+09 B15(12) - 1e+09 B70(2) + I110(10) - I114(14)
   >= -2.999999909e+09
 c71: - 1e+09 B11(7) - 1e+09 B15(12) + 1e+09 B70(2) - I110(10) + I114(14)
   >= -1.999999923e+09
 c72: - 1e+09 B10(8) - 1e+09 B17(8) - 1e+09 B71(2) + I109(12) - I116(12)
   >= -2.999999886e+09
 c73: - 1e+09 B10(8) - 1e+09 B17(8) + 1e+09 B71(2) - I109(12) + I116(12)
   >= -1.999999912e+09
 c74: I99(11) >= 0
 c75: I99(11) >= 0
 c76: I100(11) >= 0
 c77: I100(11) >= 0
 c78: I101(13) >= 0
 c79: I101(13) >= 0
 c80: I102(13) >= 0
 c81: I102(13) >= 0
 c82: I103(12) >= 0
 c83: I103(12) >= 0
 c84: I104(12) >= 0
 c85: I104(12) >= 0
 c86: I105(11) >= 0
 c87: I105(11) >= 0
 c88: I106(9) >= 0
 c89: I106(9) >= 0
 c90: I107(11) >= 0
 c91: I107(11) >= 0
 c92: I108(15) >= 0
 c93: I108(15) >= 0
 c94: I109(12) >= 0
 c95: I109(12) >= 0
 c96: I110(10) >= 0
 c97: I110(10) >= 0
 c98: I111(10) >= 0
 c99: I111(10) >= 0
 c100: I112(12) >= 0
 c101: I112(12) >= 0
 c102: I113(12) >= 0
 c103: I113(12) >= 0
 c104: I114(14) >= 0
 c105: I114(14) >= 0
 c106: I115(12) >= 0
 c107: I115(12) >= 0
 c108: I116(12) >= 0
 c109: I116(12) >= 0
 c110: 117 B0(10) + I99(11) - 1e+09 B118(2) >= -9.99999905e+08
 c111: 117 B0(10) + I99(11) - 1e+09 B118(2) <= 95
 c112: 125 B1(10) + I100(11) - 1e+09 B119(2) >= -9.99999905e+08
 c113: 125 B1(10) + I100(11) - 1e+09 B119(2) <= 95
 c114: 140 B2(10) + I101(13) - 1e+09 B120(2) >= -9.99999905e+08
 c115: 140 B2(10) + I101(13) - 1e+09 B120(2) <= 95
 c116: 130 B3(11) + I102(13) - 1e+09 B121(2) >= -9.99999905e+08
 c117: 130 B3(11) + I102(13) - 1e+09 B121(2) <= 95
 c118: 150 B4(9) + I103(12) - 1e+09 B122(4) >= -9.99999905e+08
 c119: 150 B4(9) + I103(12) - 1e+09 B122(4) <= 95
 c120: 160 B5(8) + I104(12) - 1e+09 B123(4) >= -9.99999905e+08
 c121: 160 B5(8) + I104(12) - 1e+09 B123(4) <= 95
 c122: 214 B6(10) + I105(11) - 1e+09 B124(2) >= -9.99999915e+08
 c123: 214 B6(10) + I105(11) - 1e+09 B124(2) <= 85
 c124: 150 B7(8) + I106(9) - 1e+09 B125(2) >= -9.99999915e+08
 c125: 150 B7(8) + I106(9) - 1e+09 B125(2) <= 85
 c126: 55 B8(9) + I107(11) - 1e+09 B126(2) >= -9.99999915e+08
 c127: 55 B8(9) + I107(11) - 1e+09 B126(2) <= 85
 c128: 66 B9(12) + I108(15) - 1e+09 B127(2) >= -9.99999915e+08
 c129: 66 B9(12) + I108(15) - 1e+09 B127(2) <= 85
 c130: 78 B10(8) + I109(12) - 1e+09 B128(4) >= -9.99999915e+08
 c131: 78 B10(8) + I109(12) - 1e+09 B128(4) <= 85
 c132: 65 B11(7) + I110(10) - 1e+09 B129(4) >= -9.99999915e+08
 c133: 65 B11(7) + I110(10) - 1e+09 B129(4) <= 85
 c134: 87 B12(9) + I111(10) - 1e+09 B130(2) >= -9.99999953e+08
 c135: 87 B12(9) + I111(10) - 1e+09 B130(2) <= 47
 c136: 62 B13(11) + I112(12) - 1e+09 B131(2) >= -9.99999953e+08
 c137: 62 B13(11) + I112(12) - 1e+09 B131(2) <= 47
 c138: 70 B14(10) + I113(12) - 1e+09 B132(2) >= -9.99999953e+08
 c139: 70 B14(10) + I113(12) - 1e+09 B132(2) <= 47
 c140: 80 B15(12) + I114(14) - 1e+09 B133(2) >= -9.99999953e+08
 c141: 80 B15(12) + I114(14) - 1e+09 B133(2) <= 47
 c142: 190 B16(9) + I115(12) - 1e+09 B134(4) >= -9.99999953e+08
 c143: 190 B16(9) + I115(12) - 1e+09 B134(4) <= 47
 c144: 100 B17(8) + I116(12) - 1e+09 B135(4) >= -9.99999953e+08
 c145: 100 B17(8) + I116(12) - 1e+09 B135(4) <= 47
 qc0: I117(1) - 55 B122(4) - 65 B123(4) + 7 B128(4) + 20 B129(4)
   - 143 B134(4) - 53 B135(4) + [ - I103(12) * B122(4) - I104(12) * B123(4)
   - I109(12) * B128(4) - I110(10) * B129(4) - I115(12) * B134(4)
   - I116(12) * B135(4) ] >= 0
Bounds
Binaries
 B0(10) B1(10) B2(10) B3(11) B4(9) B5(8) B6(10) B7(8) B8(9) B9(12) B10(8)
 B11(7) B12(9) B13(11) B14(10) B15(12) B16(9) B17(8) B18(0) B19(0) B20(0)
 B21(2) B22(2) B23(0) B24(4) B25(0) B26(0) B27(0) B28(0) B29(0) B30(0)
 B31(2) B32(0) B33(2) B34(2) B35(2) B36(0) B37(0) B38(0) B39(0) B40(0)
 B41(2) B42(0) B43(2) B44(4) B45(0) B46(0) B47(0) B48(0) B49(0) B50(0)
 B51(2) B52(2) B53(0) B54(0) B55(0) B56(0) B57(0) B58(0) B59(0) B60(2)
 B61(2) B62(0) B63(0) B64(0) B65(0) B66(0) B67(0) B68(0) B69(0) B70(2)
 B71(2) B72(0) B73(0) B74(0) B75(0) B76(0) B77(0) B78(0) B79(0) B80(0)
 B81(0) B82(0) B83(0) B84(0) B85(0) B86(0) B87(0) B88(0) B89(0) B90(0)
 B91(0) B92(0) B93(0) B94(0) B95(0) B96(0) B97(0) B98(0) B118(2) B119(2)
 B120(2) B121(2) B122(4) B123(4) B124(2) B125(2) B126(2) B127(2) B128(4)
 B129(4) B130(2) B131(2) B132(2) B133(2) B134(4) B135(4)
Generals
 I99(11) I100(11) I101(13) I102(13) I103(12) I104(12) I105(11) I106(9)
 I107(11) I108(15) I109(12) I110(10) I111(10) I112(12) I113(12) I114(14)
 I115(12) I116(12) I117(1)
End
